(set-option :produce-models true); benchmark generated from python API
(set-info :status unknown)
(declare-fun l_1_0_13 () Real)
(declare-fun l_1_0_11 () Real)
(declare-fun l_1_0_12 () Real)
(declare-fun l_1_0_10 () Real)
(declare-fun _a_0_ () Real)
(declare-fun l_1_0_9 () Real)
(declare-fun l_1_0_8 () Real)
(declare-fun l_1_0_7 () Real)
(declare-fun l_1_0_6 () Real)
(declare-fun l_1_0_5 () Real)
(declare-fun l_1_0_4 () Real)
(declare-fun l_1_0_3 () Real)
(declare-fun l_1_0_2 () Real)
(declare-fun l_1_0_1 () Real)
(declare-fun _a_1_ () Real)
(declare-fun _a_2_ () Real)
(declare-fun _a_3_ () Real)
(declare-fun _a_4_ () Real)
(declare-fun l_1_0_14 () Real)
(declare-fun _a_5_ () Real)
(declare-fun l_1_1_9 () Real)
(declare-fun l_1_1_8 () Real)
(declare-fun l_1_1_7 () Real)
(declare-fun l_1_1_6 () Real)
(declare-fun l_1_1_4 () Real)
(declare-fun l_1_1_2 () Real)
(declare-fun l_1_1_15 () Real)
(declare-fun l_1_1_14 () Real)
(declare-fun l_1_1_10 () Real)
(declare-fun l_1_1_1 () Real)
(declare-fun l_1_1_5 () Real)
(declare-fun l_1_1_3 () Real)
(declare-fun l_1_1_13 () Real)
(declare-fun l_1_1_12 () Real)
(declare-fun l_1_1_11 () Real)
(declare-fun l_1_1_17 () Real)
(declare-fun l_1_1_16 () Real)
(declare-fun l_1_1_20 () Real)
(declare-fun l_1_1_19 () Real)
(declare-fun l_1_1_18 () Real)
(declare-fun l_1_2_19 () Real)
(declare-fun l_1_2_17 () Real)
(declare-fun l_1_2_18 () Real)
(declare-fun l_1_2_16 () Real)
(declare-fun l_1_2_13 () Real)
(declare-fun l_1_2_8 () Real)
(declare-fun l_1_2_5 () Real)
(declare-fun l_1_2_4 () Real)
(declare-fun l_1_2_12 () Real)
(declare-fun l_1_2_10 () Real)
(declare-fun l_1_2_9 () Real)
(declare-fun l_1_2_2 () Real)
(declare-fun l_1_2_11 () Real)
(declare-fun l_1_2_1 () Real)
(declare-fun l_1_2_20 () Real)
(declare-fun l_1_2_7 () Real)
(declare-fun l_1_2_6 () Real)
(declare-fun l_1_2_3 () Real)
(declare-fun l_1_2_15 () Real)
(declare-fun l_1_2_14 () Real)
(assert
 (let ((?x1570 (- (- _a_0_ (* (* 2.0 l_1_0_10) l_1_0_12)) (* (* 2.0 l_1_0_11) l_1_0_13))))
 (= ?x1570 0.0)))
(assert
 (let ((?x48 (* l_1_0_9 l_1_0_9)))
 (let ((?x1533 (- (- (- _a_1_ (* 1.0 l_1_0_1)) (* 1.0 l_1_0_2)) (* 1.0 l_1_0_3))))
 (let ((?x1024 (- (- (- (- ?x1533 l_1_0_4) (* 1.0 l_1_0_5)) l_1_0_6) l_1_0_7)))
 (= (- (- ?x1024 l_1_0_8) ?x48) 0.0)))))
(assert
 (let ((?x1424 (* 2.0 l_1_0_3)))
 (let ((?x1421 (* l_1_0_11 l_1_0_11)))
 (let ((?x1423 (+ (- (- (+ _a_2_ l_1_0_1) (* l_1_0_10 l_1_0_10)) ?x1421) l_1_0_2)))
 (= (+ (+ ?x1423 ?x1424) l_1_0_5) 0.0)))))
(assert
 (= (- _a_3_ (* (* 2.0 l_1_0_10) l_1_0_9)) 0.0))
(assert
 (= (- _a_4_ (* (* 2.0 l_1_0_12) l_1_0_9)) 0.0))
(assert
 (let ((?x1424 (* 2.0 l_1_0_3)))
 (let ((?x1241 (* l_1_0_14 l_1_0_14)))
 (let ((?x1240 (* l_1_0_13 l_1_0_13)))
 (let ((?x1144 (- (- (- (- (- _a_5_ l_1_0_1) (* l_1_0_12 l_1_0_12)) ?x1240) ?x1241) l_1_0_2)))
 (= (- (- ?x1144 ?x1424) l_1_0_5) 0.0))))))
(assert
 (= (- l_1_0_3) 0.0))
(assert
 (let ((?x1424 (* 2.0 l_1_0_3)))
 (= ?x1424 0.0)))
(assert
 (= (- l_1_0_3) 0.0))
(assert
 (>= l_1_0_1 0.0))
(assert
 (>= l_1_0_2 0.0))
(assert
 (>= l_1_0_3 0.0))
(assert
 (>= l_1_0_4 0.0))
(assert
 (>= l_1_0_5 0.0))
(assert
 (>= l_1_0_6 0.0))
(assert
 (>= l_1_0_7 0.0))
(assert
 (>= l_1_0_8 0.0))
(assert
 (>= l_1_0_9 0.0))
(assert
 (>= l_1_0_11 0.0))
(assert
 (>= l_1_0_14 0.0))
(assert
 (let ((?x1113 (* l_1_1_15 l_1_1_15)))
 (let ((?x1107 (* _a_1_ l_1_1_5)))
 (let ((?x935 (* _a_1_ l_1_1_13)))
 (let ((?x1104 (- (+ (* (- _a_1_) l_1_1_11) (* (* 1.0 _a_1_) l_1_1_12)) ?x935)))
 (let ((?x1109 (+ (- (+ ?x1104 (* (* 1.0 _a_1_) l_1_1_3)) ?x1107) (* 1.0 l_1_1_1))))
 (let ((?x1116 (- (- (- (- (- ?x1109 (* 1.0 l_1_1_10)) l_1_1_14) ?x1113) l_1_1_2) l_1_1_4)))
 (let ((?x57 (- (- (+ ?x1116 (* 1.0 l_1_1_6)) l_1_1_7) (* (* l_1_1_8 _a_1_) _a_1_))))
 (= (+ (+ ?x57 (* 1.0 l_1_1_9)) (/ 15.0 4.0)) 0.0)))))))))
(assert
 (let ((?x916 (* l_1_1_17 l_1_1_17)))
 (let ((?x952 (* l_1_1_16 l_1_1_16)))
 (let ((?x946 (* 2.0 l_1_1_10)))
 (let ((?x939 (* _a_2_ l_1_1_5)))
 (let ((?x945 (- (- (- (* (- _a_2_) l_1_1_11) (* _a_2_ l_1_1_13)) ?x939) l_1_1_1)))
 (let ((?x40 (- (- (+ ?x945 ?x946) (* l_1_1_12 (- _a_1_ (* 1.0 _a_2_)))) ?x952)))
 (let ((?x914 (- (- (- ?x40 ?x916) (* l_1_1_3 (- _a_1_ (* 1.0 _a_2_)))) l_1_1_6)))
 (let ((?x911 (- ?x914 (* l_1_1_8 (+ (* (* 2.0 _a_1_) _a_2_) (* _a_3_ _a_3_))))))
 (= (+ (- ?x911 l_1_1_9) 1.0) 0.0))))))))))
(assert
 (let ((?x607 (* l_1_1_20 l_1_1_20)))
 (let ((?x605 (* l_1_1_19 l_1_1_19)))
 (let ((?x548 (* l_1_1_18 l_1_1_18)))
 (let ((?x946 (* 2.0 l_1_1_10)))
 (let ((?x714 (* _a_5_ l_1_1_5)))
 (let ((?x669 (- (- (- (* (- _a_5_) l_1_1_11) (* _a_5_ l_1_1_13)) ?x714) l_1_1_1)))
 (let ((?x604 (- (- (+ ?x669 ?x946) (* l_1_1_12 (- _a_1_ (* 1.0 _a_5_)))) ?x548)))
 (let ((?x612 (- (- (- ?x604 ?x605) ?x607) (* l_1_1_3 (- _a_1_ (* 1.0 _a_5_))))))
 (let ((?x553 (- (- ?x612 l_1_1_6) (* l_1_1_8 (+ (* (* 2.0 _a_1_) _a_5_) (* _a_4_ _a_4_))))))
 (= (+ (- ?x553 l_1_1_9) 1.0) 0.0)))))))))))
(assert
 (let ((?x19 (* _a_4_ l_1_1_5)))
 (let ((?x296 (* _a_4_ l_1_1_13)))
 (let ((?x290 (* _a_4_ l_1_1_11)))
 (let ((?x295 (+ (- (* (* (* (- 2.0) _a_1_) _a_4_) l_1_1_8) ?x290) (* (* 1.0 _a_4_) l_1_1_12))))
 (let ((?x16 (- (- (+ (- ?x295 ?x296) (* (* 1.0 _a_4_) l_1_1_3)) ?x19) (* (* 2.0 l_1_1_15) l_1_1_18))))
 (= (- ?x16 4.0) 0.0)))))))
(assert
 (let ((?x21 (+ (* (* 2.0 _a_0_) _a_1_) (* (* 2.0 _a_3_) _a_4_))))
 (let ((?x242 (* _a_0_ l_1_1_5)))
 (let ((?x67 (* _a_0_ l_1_1_13)))
 (let ((?x244 (- (+ (* (- _a_0_) l_1_1_11) (* (* 1.0 _a_0_) l_1_1_12)) ?x67)))
 (let ((?x240 (- (- (+ ?x244 (* (* 1.0 _a_0_) l_1_1_3)) ?x242) (* (* 2.0 l_1_1_16) l_1_1_18))))
 (= (- (- ?x240 (* (* 2.0 l_1_1_17) l_1_1_19)) (* l_1_1_8 ?x21)) 0.0)))))))
(assert
 (let ((?x852 (* _a_3_ l_1_1_5)))
 (let ((?x356 (* _a_3_ l_1_1_13)))
 (let ((?x401 (* _a_3_ l_1_1_11)))
 (let ((?x397 (+ (- (* (* (* (- 2.0) _a_1_) _a_3_) l_1_1_8) ?x401) (* (* 1.0 _a_3_) l_1_1_12))))
 (let ((?x856 (- (- (+ (- ?x397 ?x356) (* (* 1.0 _a_3_) l_1_1_3)) ?x852) (* (* 2.0 l_1_1_15) l_1_1_16))))
 (= ?x856 0.0)))))))
(assert
 (let ((?x212 (* _a_0_ l_1_1_3)))
 (let ((?x207 (* _a_0_ l_1_1_12)))
 (= (- (- (* (* (* (- 2.0) _a_0_) _a_2_) l_1_1_8) ?x207) ?x212) 0.0))))
(assert
 (let ((?x1319 (- (- (- (* (- _a_2_) l_1_1_12) (* _a_2_ l_1_1_3)) l_1_1_10) (* (* l_1_1_8 _a_2_) _a_2_))))
 (= ?x1319 0.0)))
(assert
 (let ((?x959 (* _a_3_ l_1_1_3)))
 (let ((?x1407 (* _a_3_ l_1_1_12)))
 (= (- (- (* (* (* (- 2.0) _a_2_) _a_3_) l_1_1_8) ?x1407) ?x959) 0.0))))
(assert
 (let ((?x331 (+ (* (* 2.0 _a_0_) _a_3_) (* (* 2.0 _a_2_) _a_4_))))
 (let ((?x333 (- (- (* (- _a_4_) l_1_1_12) (* _a_4_ l_1_1_3)) (* l_1_1_8 ?x331))))
 (= ?x333 0.0))))
(assert
 (let ((?x232 (- (- (* (- 2.0) l_1_1_10) (* l_1_1_12 (+ _a_2_ _a_5_))) (* l_1_1_3 (+ _a_2_ _a_5_)))))
 (let ((?x1439 (- ?x232 (* l_1_1_8 (+ (* _a_0_ _a_0_) (* (* 2.0 _a_2_) _a_5_))))))
 (= ?x1439 0.0))))
(assert
 (let ((?x212 (* _a_0_ l_1_1_3)))
 (let ((?x207 (* _a_0_ l_1_1_12)))
 (= (- (- (* (* (* (- 2.0) _a_0_) _a_5_) l_1_1_8) ?x207) ?x212) 0.0))))
(assert
 (let ((?x1470 (+ (* (* 2.0 _a_0_) _a_4_) (* (* 2.0 _a_3_) _a_5_))))
 (let ((?x1472 (- (- (* (- _a_3_) l_1_1_12) (* _a_3_ l_1_1_3)) (* l_1_1_8 ?x1470))))
 (= ?x1472 0.0))))
(assert
 (let ((?x233 (* _a_4_ l_1_1_3)))
 (let ((?x270 (* _a_4_ l_1_1_12)))
 (= (- (- (* (* (* (- 2.0) _a_4_) _a_5_) l_1_1_8) ?x270) ?x233) 0.0))))
(assert
 (let ((?x438 (- (- (- (* (- _a_5_) l_1_1_12) (* _a_5_ l_1_1_3)) l_1_1_10) (* (* l_1_1_8 _a_5_) _a_5_))))
 (= ?x438 0.0)))
(assert
 (>= l_1_1_1 0.0))
(assert
 (>= l_1_1_2 0.0))
(assert
 (>= l_1_1_3 0.0))
(assert
 (>= l_1_1_4 0.0))
(assert
 (>= l_1_1_5 0.0))
(assert
 (>= l_1_1_6 0.0))
(assert
 (>= l_1_1_7 0.0))
(assert
 (>= l_1_1_8 0.0))
(assert
 (>= l_1_1_9 0.0))
(assert
 (>= l_1_1_10 0.0))
(assert
 (>= l_1_1_11 0.0))
(assert
 (>= l_1_1_12 0.0))
(assert
 (>= l_1_1_13 0.0))
(assert
 (>= l_1_1_14 0.0))
(assert
 (>= l_1_1_15 0.0))
(assert
 (>= l_1_1_17 0.0))
(assert
 (>= l_1_1_20 0.0))
(assert
 (let ((?x21 (+ (* (* 2.0 _a_0_) _a_1_) (* (* 2.0 _a_3_) _a_4_))))
 (let ((?x1227 (* (/ 81.0 5000.0) _a_5_)))
 (let ((?x1222 (* (/ 81.0 5000.0) _a_2_)))
 (let ((?x518 (* (/ 809919.0 1000000.0) _a_0_)))
 (let ((?x623 (* _a_0_ l_1_2_5)))
 (let ((?x874 (* _a_0_ l_1_2_4)))
 (let ((?x622 (- (- (* (- _a_0_) l_1_2_10) (* (* 1.0 _a_0_) l_1_2_12)) ?x874)))
 (let ((?x1223 (- (+ (- (- ?x622 ?x623) (* (* 1.0 _a_0_) l_1_2_8)) ?x518) ?x1222)))
 (let ((?x1163 (- (- (+ ?x1223 ?x1227) (* l_1_2_13 ?x21)) (* (* 2.0 l_1_2_16) l_1_2_18))))
 (= (- ?x1163 (* (* 2.0 l_1_2_17) l_1_2_19)) 0.0)))))))))))
(assert
 (let ((?x779 (* l_1_2_17 l_1_2_17)))
 (let ((?x788 (* l_1_2_16 l_1_2_16)))
 (let ((?x1267 (* 2.0 l_1_2_11)))
 (let ((?x1270 (* (/ 81.0 1000000.0) _a_5_)))
 (let ((?x1408 (* (/ 81.0 100.0) _a_2_)))
 (let ((?x1413 (* _a_2_ l_1_2_5)))
 (let ((?x1397 (* _a_2_ l_1_2_4)))
 (let ((?x1409 (+ (- (- (- (* (/ 81.0 10000.0) _a_0_) (* _a_2_ l_1_2_10)) ?x1397) ?x1413) ?x1408)))
 (let ((?x1350 (- (+ (+ (+ ?x1409 ?x1270) l_1_2_1) ?x1267) (* l_1_2_12 (+ (- _a_1_) (* 1.0 _a_2_))))))
 (let ((?x1352 (- ?x1350 (* l_1_2_13 (+ (* (* 2.0 _a_1_) _a_2_) (* _a_3_ _a_3_))))))
 (let ((?x404 (- (+ (- (- ?x1352 ?x788) ?x779) l_1_2_2) (* l_1_2_8 (+ (- _a_1_) (* 1.0 _a_2_))))))
 (= (+ ?x404 l_1_2_9) 0.0)))))))))))))
(assert
 (let ((?x696 (* l_1_2_20 l_1_2_20)))
 (let ((?x676 (* l_1_2_19 l_1_2_19)))
 (let ((?x1016 (* l_1_2_18 l_1_2_18)))
 (let ((?x1267 (* 2.0 l_1_2_11)))
 (let ((?x686 (* (/ 81.0 100.0) _a_5_)))
 (let ((?x695 (* _a_5_ l_1_2_5)))
 (let ((?x685 (* _a_5_ l_1_2_4)))
 (let ((?x694 (- (- (+ (* (- (/ 81.0 10000.0)) _a_0_) (* (/ 81.0 1000000.0) _a_2_)) (* _a_5_ l_1_2_10)) ?x685)))
 (let ((?x1012 (- (+ (+ (+ (- ?x694 ?x695) ?x686) l_1_2_1) ?x1267) (* l_1_2_12 (+ (- _a_1_) (* 1.0 _a_5_))))))
 (let ((?x1015 (- ?x1012 (* l_1_2_13 (+ (* (* 2.0 _a_1_) _a_5_) (* _a_4_ _a_4_))))))
 (let ((?x807 (- (- (+ (- (- ?x1015 ?x1016) ?x676) l_1_2_2) ?x696) (* l_1_2_8 (+ (- _a_1_) (* 1.0 _a_5_))))))
 (= (+ ?x807 l_1_2_9) 0.0)))))))))))))
(assert
 (let ((?x1459 (* l_1_2_15 l_1_2_15)))
 (let ((?x523 (* _a_1_ l_1_2_5)))
 (let ((?x521 (* _a_1_ l_1_2_4)))
 (let ((?x522 (- (- (* (- _a_1_) l_1_2_10) (* (* 1.0 _a_1_) l_1_2_12)) ?x521)))
 (let ((?x657 (- (+ (- (- ?x522 ?x523) (* (* 1.0 _a_1_) l_1_2_8)) _a_1_) (* 1.0 l_1_2_1))))
 (let ((?x1458 (- (- (- ?x657 (* 1.0 l_1_2_11)) (* (* l_1_2_13 _a_1_) _a_1_)) l_1_2_14)))
 (let ((?x792 (- (- (- (- (- ?x1458 ?x1459) (* 1.0 l_1_2_2)) l_1_2_3) l_1_2_6) l_1_2_7)))
 (= (- ?x792 (* 1.0 l_1_2_9)) 0.0)))))))))
(assert
 (let ((?x1234 (* (/ 9.0 1000.0) _a_4_)))
 (let ((?x1076 (* (/ 9.0 10.0) _a_3_)))
 (let ((?x298 (* _a_3_ l_1_2_5)))
 (let ((?x1365 (* _a_3_ l_1_2_4)))
 (let ((?x839 (* _a_3_ l_1_2_10)))
 (let ((?x1364 (- (- (* (* (* (- 2.0) _a_1_) _a_3_) l_1_2_13) ?x839) (* (* 1.0 _a_3_) l_1_2_12))))
 (let ((?x1078 (+ (- (- (- ?x1364 ?x1365) ?x298) (* (* 1.0 _a_3_) l_1_2_8)) ?x1076)))
 (= (- (+ ?x1078 ?x1234) (* (* 2.0 l_1_2_15) l_1_2_16)) 0.0)))))))))
(assert
 (let ((?x417 (* (/ 9.0 10.0) _a_4_)))
 (let ((?x1148 (* _a_4_ l_1_2_5)))
 (let ((?x1143 (* _a_4_ l_1_2_4)))
 (let ((?x454 (* _a_4_ l_1_2_10)))
 (let ((?x877 (- (- (* (* (* (- 2.0) _a_1_) _a_4_) l_1_2_13) (* (/ 9.0 1000.0) _a_3_)) ?x454)))
 (let ((?x413 (- (- (- (- ?x877 (* (* 1.0 _a_4_) l_1_2_12)) ?x1143) ?x1148) (* (* 1.0 _a_4_) l_1_2_8))))
 (= (- (+ ?x413 ?x417) (* (* 2.0 l_1_2_15) l_1_2_18)) 0.0))))))))
(assert
 (let ((?x901 (* _a_0_ l_1_2_8)))
 (let ((?x747 (* _a_0_ l_1_2_12)))
 (= (+ (+ (* (* (* (- 2.0) _a_0_) _a_2_) l_1_2_13) ?x747) ?x901) 0.0))))
(assert
 (let ((?x1155 (- (- (+ (* _a_2_ l_1_2_12) (* _a_2_ l_1_2_8)) l_1_2_11) (* (* l_1_2_13 _a_2_) _a_2_))))
 (= ?x1155 0.0)))
(assert
 (let ((?x1539 (* _a_3_ l_1_2_8)))
 (let ((?x746 (* _a_3_ l_1_2_12)))
 (= (+ (+ (* (* (* (- 2.0) _a_2_) _a_3_) l_1_2_13) ?x746) ?x1539) 0.0))))
(assert
 (let ((?x331 (+ (* (* 2.0 _a_0_) _a_3_) (* (* 2.0 _a_2_) _a_4_))))
 (let ((?x1547 (* _a_4_ l_1_2_8)))
 (let ((?x540 (* _a_4_ l_1_2_12)))
 (let ((?x448 (+ ?x540 ?x1547)))
 (= (- ?x448 (* l_1_2_13 ?x331)) 0.0))))))
(assert
 (let ((?x571 (- (- (* (- 2.0) l_1_2_11) (* l_1_2_12 (- (- _a_2_) _a_5_))) (* l_1_2_13 (+ (* _a_0_ _a_0_) (* (* 2.0 _a_2_) _a_5_))))))
 (= (- ?x571 (* l_1_2_8 (- (- _a_2_) _a_5_))) 0.0)))
(assert
 (let ((?x901 (* _a_0_ l_1_2_8)))
 (let ((?x747 (* _a_0_ l_1_2_12)))
 (= (+ (+ (* (* (* (- 2.0) _a_0_) _a_5_) l_1_2_13) ?x747) ?x901) 0.0))))
(assert
 (let ((?x1470 (+ (* (* 2.0 _a_0_) _a_4_) (* (* 2.0 _a_3_) _a_5_))))
 (let ((?x1539 (* _a_3_ l_1_2_8)))
 (let ((?x746 (* _a_3_ l_1_2_12)))
 (let ((?x1279 (+ ?x746 ?x1539)))
 (= (- ?x1279 (* l_1_2_13 ?x1470)) 0.0))))))
(assert
 (let ((?x1547 (* _a_4_ l_1_2_8)))
 (let ((?x540 (* _a_4_ l_1_2_12)))
 (= (+ (+ (* (* (* (- 2.0) _a_4_) _a_5_) l_1_2_13) ?x540) ?x1547) 0.0))))
(assert
 (let ((?x460 (- (- (+ (* _a_5_ l_1_2_12) (* _a_5_ l_1_2_8)) l_1_2_11) (* (* l_1_2_13 _a_5_) _a_5_))))
 (= ?x460 0.0)))
(assert
 (>= l_1_2_1 0.0))
(assert
 (>= l_1_2_2 0.0))
(assert
 (>= l_1_2_3 0.0))
(assert
 (>= l_1_2_4 0.0))
(assert
 (>= l_1_2_5 0.0))
(assert
 (>= l_1_2_6 0.0))
(assert
 (>= l_1_2_7 0.0))
(assert
 (>= l_1_2_8 0.0))
(assert
 (>= l_1_2_9 0.0))
(assert
 (>= l_1_2_10 0.0))
(assert
 (>= l_1_2_11 0.0))
(assert
 (>= l_1_2_12 0.0))
(assert
 (>= l_1_2_13 0.0))
(assert
 (>= l_1_2_14 0.0))
(assert
 (>= l_1_2_15 0.0))
(assert
 (>= l_1_2_17 0.0))
(assert
 (>= l_1_2_20 0.0))
(check-sat)
(get-model)